<?xml version = "1.0" standalone="yes"?>
<!-- This file has been generated by DOcplex version 2.23.222  -->
<CPLEXSolution version="1.0">
 <header
   problemName="CVRP"
   objectiveValue="6261"
  />
 <variables>
  <variable name="x_0_1" index="0" value="1.00000"/>
  <variable name="x_0_2" index="1" value="1.00000"/>
  <variable name="x_0_3" index="2" value="1.00000"/>
  <variable name="x_0_5" index="4" value="1.00000"/>
  <variable name="x_0_6" index="5" value="1.00000"/>
  <variable name="x_0_12" index="11" value="1.00000"/>
  <variable name="x_1_0" index="12" value="1.00000"/>
  <variable name="x_2_10" index="33" value="1.00000"/>
  <variable name="x_3_11" index="46" value="1.00000"/>
  <variable name="x_4_0" index="48" value="1.00000"/>
  <variable name="x_5_7" index="66" value="1.00000"/>
  <variable name="x_6_0" index="72" value="1.00000"/>
  <variable name="x_7_9" index="92" value="1.00000"/>
  <variable name="x_8_0" index="96" value="1.00000"/>
  <variable name="x_9_0" index="108" value="1.00000"/>
  <variable name="x_10_0" index="120" value="1.00000"/>
  <variable name="x_11_8" index="140" value="1.00000"/>
  <variable name="x_12_4" index="148" value="1.00000"/>
  <variable name="u_1" index="156" value="42.00000"/>
  <variable name="u_2" index="157" value="19.00000"/>
  <variable name="u_3" index="158" value="1.00000"/>
  <variable name="u_4" index="159" value="52.00000"/>
  <variable name="u_5" index="160" value="22.00000"/>
  <variable name="u_6" index="161" value="19.00000"/>
  <variable name="u_7" index="162" value="29.00000"/>
  <variable name="u_8" index="163" value="52.00000"/>
  <variable name="u_9" index="164" value="45.00000"/>
  <variable name="u_10" index="165" value="52.00000"/>
  <variable name="u_11" index="166" value="21.00000"/>
  <variable name="u_12" index="167" value="9.00000"/>
 </variables>
</CPLEXSolution>
